units          	lj 
dimension       2
boundary        p p p

read_data	t75-snap-109-atoms.data
 
mass            1 1

#variable 	coff equal 2.0 #change the cutoff

pair_style      lj/cut 2.0 
pair_coeff      1 1 1.0 1.00 2.0

compute	002 all  hexorder/atom  degree 6 nnn 6 cutoff 2.0
dump		001 all custom 1 dump-q-at_t75-109.lammpstrj id type xs ys zs c_002[*] 
dump_modify	001 sort id
run		0 
