variable        duration        equal 1E7
variable        save_period     equal ${duration}/100
variable	seed		equal 18331 
variable	seed0		equal 18331+1

variable        nn equal 9359   #check correct density
variable	ll		equal 58.36

units          	lj 
dimension       2
boundary        p p p 
region          box  block   -${ll} ${ll} -${ll} ${ll} -0.5 0.5
create_box      1 box

mass            1 1


pair_style      lj/cut $(2^(1/6)) 
pair_coeff      1 1 1.0 1.00 $(2^(1/6)) 
pair_modify     shift yes
neighbor 	0.3 bin

create_atoms    1 random ${nn} ${seed} box

fix 		1 all enforce2d


minimize        1.0e-4 1.0e-6 1000 10000
reset_timestep	0

dump            001 all atom ${save_period} dump-liquid.lammpstrj
dump_modify	001 sort id

variable seed equal 27787 
velocity all create 1.0 ${seed} 

fix             mynvt all nvt temp 0.025 0.025 $(100.0*dt)

thermo		${save_period}
run		${duration}
